60
1 0 3
2 0 10
2 1 11
3 0 14
3 1 5
3 2 15
4 0 17
4 1 1
4 2 6
4 3 8
5 0 13
5 1 8
5 2 10
5 3 15
5 4 8
6 0 18
6 1 4
6 2 7
6 3 17
6 4 6
6 5 5
7 0 3
7 1 2
7 2 15
7 3 5
7 4 14
7 5 4
7 6 9
8 0 18
8 1 9
8 2 1
8 3 3
8 4 15
8 5 11
8 6 18
8 7 12
9 0 18
9 1 12
9 2 20
9 3 11
9 4 17
9 5 9
9 6 15
9 7 13
9 8 8
10 0 14
10 1 16
10 2 10
10 3 16
10 4 20
10 5 7
10 6 15
10 7 12
10 8 3
10 9 12
11 0 9
11 1 8
11 2 1
11 3 2
11 4 2
11 5 1
11 6 13
11 7 14
11 8 11
11 9 10
11 10 8
12 0 19
12 1 17
12 2 16
12 3 4
12 4 10
12 5 5
12 6 12
12 7 18
12 8 20
12 9 6
12 10 10
12 11 19
13 0 10
13 1 17
13 2 19
13 3 1
13 4 16
13 5 20
13 6 5
13 7 20
13 8 12
13 9 9
13 10 1
13 11 2
13 12 11
14 0 20
14 1 12
14 2 14
14 3 10
14 4 7
14 5 8
14 6 9
14 7 14
14 8 2
14 9 3
14 10 9
14 11 9
14 12 14
14 13 3
15 0 14
15 1 16
15 2 7
15 3 9
15 4 16
15 5 16
15 6 12
15 7 17
15 8 17
15 9 14
15 10 7
15 11 4
15 12 14
15 13 10
15 14 4
16 0 18
16 1 10
16 2 20
16 3 2
16 4 20
16 5 12
16 6 16
16 7 13
16 8 7
16 9 18
16 10 14
16 11 7
16 12 9
16 13 11
16 14 16
16 15 16
17 0 9
17 1 18
17 2 1
17 3 10
17 4 9
17 5 11
17 6 3
17 7 17
17 8 3
17 9 1
17 10 19
17 11 9
17 12 8
17 13 19
17 14 14
17 15 15
17 16 10
18 0 10
18 1 5
18 2 4
18 3 2
18 4 7
18 5 6
18 6 6
18 7 14
18 8 16
18 9 15
18 10 3
18 11 13
18 12 7
18 13 4
18 14 8
18 15 19
18 16 20
18 17 20
19 0 1
19 1 9
19 2 1
19 3 5
19 4 18
19 5 7
19 6 5
19 7 15
19 8 19
19 9 10
19 10 19
19 11 3
19 12 7
19 13 5
19 14 12
19 15 7
19 16 16
19 17 11
19 18 19
20 0 13
20 1 9
20 2 11
20 3 19
20 4 19
20 5 7
20 6 20
20 7 14
20 8 19
20 9 14
20 10 6
20 11 7
20 12 2
20 13 14
20 14 15
20 15 20
20 16 17
20 17 6
20 18 2
20 19 2
21 0 11
21 1 18
21 2 1
21 3 13
21 4 8
21 5 13
21 6 5
21 7 18
21 8 13
21 9 6
21 10 4
21 11 3
21 12 13
21 13 15
21 14 5
21 15 16
21 16 11
21 17 2
21 18 20
21 19 17
21 20 16
22 0 8
22 1 5
22 2 10
22 3 18
22 4 10
22 5 4
22 6 8
22 7 17
22 8 8
22 9 20
22 10 17
22 11 18
22 12 18
22 13 3
22 14 2
22 15 9
22 16 3
22 17 7
22 18 6
22 19 11
22 20 5
22 21 11
23 0 12
23 1 4
23 2 17
23 3 14
23 4 6
23 5 17
23 6 15
23 7 1
23 8 1
23 9 1
23 10 10
23 11 16
23 12 13
23 13 2
23 14 18
23 15 20
23 16 20
23 17 17
23 18 15
23 19 5
23 20 17
23 21 8
23 22 16
24 0 9
24 1 18
24 2 16
24 3 16
24 4 15
24 5 2
24 6 7
24 7 4
24 8 2
24 9 9
24 10 15
24 11 17
24 12 19
24 13 20
24 14 4
24 15 14
24 16 17
24 17 14
24 18 5
24 19 7
24 20 17
24 21 3
24 22 7
24 23 7
25 0 9
25 1 12
25 2 9
25 3 10
25 4 20
25 5 15
25 6 12
25 7 19
25 8 2
25 9 12
25 10 2
25 11 3
25 12 6
25 13 10
25 14 8
25 15 12
25 16 17
25 17 12
25 18 17
25 19 11
25 20 5
25 21 11
25 22 17
25 23 5
25 24 14
26 0 17
26 1 6
26 2 7
26 3 4
26 4 14
26 5 20
26 6 12
26 7 1
26 8 12
26 9 17
26 10 19
26 11 18
26 12 3
26 13 16
26 14 12
26 15 12
26 16 4
26 17 6
26 18 17
26 19 20
26 20 14
26 21 17
26 22 10
26 23 9
26 24 3
26 25 11
27 0 3
27 1 18
27 2 5
27 3 14
27 4 16
27 5 19
27 6 13
27 7 1
27 8 3
27 9 9
27 10 18
27 11 8
27 12 2
27 13 7
27 14 4
27 15 1
27 16 11
27 17 4
27 18 16
27 19 3
27 20 7
27 21 14
27 22 8
27 23 9
27 24 4
27 25 6
27 26 10
28 0 10
28 1 20
28 2 2
28 3 17
28 4 10
28 5 5
28 6 6
28 7 3
28 8 10
28 9 6
28 10 11
28 11 16
28 12 14
28 13 1
28 14 19
28 15 15
28 16 7
28 17 11
28 18 18
28 19 1
28 20 7
28 21 17
28 22 9
28 23 20
28 24 7
28 25 12
28 26 6
28 27 1
29 0 11
29 1 4
29 2 14
29 3 16
29 4 16
29 5 9
29 6 8
29 7 12
29 8 17
29 9 14
29 10 12
29 11 16
29 12 10
29 13 12
29 14 4
29 15 15
29 16 4
29 17 12
29 18 14
29 19 15
29 20 9
29 21 2
29 22 20
29 23 10
29 24 14
29 25 8
29 26 15
29 27 5
29 28 16
30 0 17
30 1 11
30 2 15
30 3 13
30 4 9
30 5 16
30 6 16
30 7 16
30 8 18
30 9 3
30 10 10
30 11 3
30 12 12
30 13 16
30 14 7
30 15 11
30 16 20
30 17 19
30 18 8
30 19 9
30 20 16
30 21 2
30 22 13
30 23 13
30 24 19
30 25 17
30 26 19
30 27 6
30 28 12
30 29 6
31 0 8
31 1 4
31 2 5
31 3 6
31 4 19
31 5 10
31 6 1
31 7 3
31 8 9
31 9 17
31 10 15
31 11 10
31 12 15
31 13 7
31 14 20
31 15 13
31 16 5
31 17 17
31 18 11
31 19 9
31 20 4
31 21 2
31 22 13
31 23 1
31 24 12
31 25 6
31 26 12
31 27 3
31 28 11
31 29 12
31 30 15
32 0 11
32 1 2
32 2 14
32 3 16
32 4 12
32 5 10
32 6 12
32 7 8
32 8 5
32 9 1
32 10 17
32 11 16
32 12 12
32 13 12
32 14 9
32 15 2
32 16 10
32 17 7
32 18 19
32 19 8
32 20 13
32 21 16
32 22 12
32 23 10
32 24 18
32 25 14
32 26 2
32 27 7
32 28 6
32 29 4
32 30 7
32 31 12
33 0 18
33 1 9
33 2 15
33 3 19
33 4 2
33 5 3
33 6 3
33 7 8
33 8 7
33 9 6
33 10 16
33 11 18
33 12 16
33 13 2
33 14 12
33 15 19
33 16 2
33 17 11
33 18 13
33 19 7
33 20 15
33 21 6
33 22 16
33 23 8
33 24 1
33 25 7
33 26 19
33 27 15
33 28 3
33 29 6
33 30 2
33 31 16
33 32 17
34 0 19
34 1 19
34 2 18
34 3 5
34 4 15
34 5 18
34 6 18
34 7 8
34 8 3
34 9 17
34 10 6
34 11 3
34 12 5
34 13 3
34 14 7
34 15 16
34 16 1
34 17 16
34 18 3
34 19 2
34 20 15
34 21 4
34 22 11
34 23 3
34 24 13
34 25 16
34 26 16
34 27 19
34 28 19
34 29 14
34 30 6
34 31 13
34 32 8
34 33 19
35 0 2
35 1 1
35 2 18
35 3 19
35 4 2
35 5 18
35 6 16
35 7 6
35 8 20
35 9 15
35 10 12
35 11 2
35 12 18
35 13 3
35 14 19
35 15 8
35 16 18
35 17 4
35 18 11
35 19 14
35 20 17
35 21 18
35 22 17
35 23 13
35 24 11
35 25 4
35 26 9
35 27 13
35 28 13
35 29 10
35 30 18
35 31 11
35 32 10
35 33 1
35 34 1
36 0 18
36 1 20
36 2 19
36 3 7
36 4 8
36 5 4
36 6 7
36 7 12
36 8 10
36 9 16
36 10 20
36 11 8
36 12 8
36 13 13
36 14 7
36 15 15
36 16 8
36 17 20
36 18 19
36 19 14
36 20 10
36 21 11
36 22 13
36 23 13
36 24 5
36 25 9
36 26 2
36 27 12
36 28 5
36 29 3
36 30 5
36 31 6
36 32 9
36 33 16
36 34 1
36 35 1
37 0 6
37 1 15
37 2 8
37 3 18
37 4 2
37 5 14
37 6 7
37 7 3
37 8 9
37 9 10
37 10 18
37 11 12
37 12 15
37 13 3
37 14 16
37 15 19
37 16 2
37 17 19
37 18 2
37 19 8
37 20 14
37 21 18
37 22 17
37 23 15
37 24 10
37 25 8
37 26 1
37 27 8
37 28 14
37 29 5
37 30 19
37 31 18
37 32 16
37 33 8
37 34 16
37 35 17
37 36 4
38 0 16
38 1 2
38 2 20
38 3 3
38 4 3
38 5 19
38 6 17
38 7 4
38 8 6
38 9 16
38 10 13
38 11 18
38 12 6
38 13 9
38 14 20
38 15 10
38 16 20
38 17 13
38 18 9
38 19 7
38 20 10
38 21 17
38 22 9
38 23 11
38 24 1
38 25 14
38 26 18
38 27 11
38 28 9
38 29 1
38 30 19
38 31 15
38 32 11
38 33 8
38 34 2
38 35 14
38 36 9
38 37 4
39 0 4
39 1 7
39 2 12
39 3 18
39 4 11
39 5 3
39 6 13
39 7 9
39 8 9
39 9 18
39 10 1
39 11 16
39 12 17
39 13 12
39 14 18
39 15 10
39 16 4
39 17 2
39 18 7
39 19 10
39 20 10
39 21 16
39 22 19
39 23 19
39 24 4
39 25 2
39 26 15
39 27 18
39 28 9
39 29 15
39 30 12
39 31 2
39 32 16
39 33 14
39 34 14
39 35 14
39 36 12
39 37 9
39 38 4
40 0 14
40 1 20
40 2 10
40 3 1
40 4 18
40 5 11
40 6 10
40 7 12
40 8 13
40 9 7
40 10 5
40 11 2
40 12 9
40 13 19
40 14 2
40 15 3
40 16 13
40 17 10
40 18 1
40 19 3
40 20 7
40 21 3
40 22 13
40 23 12
40 24 8
40 25 9
40 26 10
40 27 7
40 28 4
40 29 6
40 30 1
40 31 8
40 32 10
40 33 12
40 34 3
40 35 2
40 36 15
40 37 2
40 38 15
40 39 15
41 0 1
41 1 4
41 2 15
41 3 8
41 4 16
41 5 18
41 6 14
41 7 19
41 8 7
41 9 20
41 10 12
41 11 17
41 12 19
41 13 1
41 14 20
41 15 15
41 16 10
41 17 3
41 18 17
41 19 15
41 20 18
41 21 4
41 22 9
41 23 13
41 24 17
41 25 1
41 26 19
41 27 18
41 28 6
41 29 9
41 30 7
41 31 18
41 32 6
41 33 16
41 34 19
41 35 1
41 36 9
41 37 10
41 38 18
41 39 7
41 40 9
42 0 13
42 1 19
42 2 13
42 3 12
42 4 19
42 5 14
42 6 17
42 7 19
42 8 8
42 9 10
42 10 17
42 11 11
42 12 1
42 13 7
42 14 13
42 15 5
42 16 13
42 17 4
42 18 18
42 19 11
42 20 2
42 21 11
42 22 7
42 23 14
42 24 12
42 25 17
42 26 16
42 27 5
42 28 3
42 29 8
42 30 14
42 31 7
42 32 9
42 33 7
42 34 8
42 35 12
42 36 2
42 37 18
42 38 20
42 39 11
42 40 17
42 41 15
43 0 17
43 1 3
43 2 12
43 3 17
43 4 12
43 5 12
43 6 12
43 7 3
43 8 20
43 9 9
43 10 17
43 11 18
43 12 15
43 13 7
43 14 13
43 15 2
43 16 17
43 17 12
43 18 11
43 19 19
43 20 6
43 21 6
43 22 1
43 23 2
43 24 12
43 25 13
43 26 11
43 27 16
43 28 9
43 29 6
43 30 8
43 31 7
43 32 10
43 33 15
43 34 11
43 35 18
43 36 17
43 37 6
43 38 5
43 39 2
43 40 16
43 41 15
43 42 20
44 0 16
44 1 9
44 2 15
44 3 2
44 4 12
44 5 5
44 6 9
44 7 10
44 8 7
44 9 13
44 10 8
44 11 19
44 12 9
44 13 11
44 14 17
44 15 13
44 16 12
44 17 12
44 18 3
44 19 15
44 20 8
44 21 15
44 22 10
44 23 8
44 24 11
44 25 4
44 26 18
44 27 13
44 28 2
44 29 1
44 30 18
44 31 14
44 32 14
44 33 14
44 34 2
44 35 11
44 36 12
44 37 5
44 38 6
44 39 18
44 40 7
44 41 18
44 42 9
44 43 19
45 0 5
45 1 1
45 2 9
45 3 7
45 4 9
45 5 17
45 6 1
45 7 17
45 8 7
45 9 16
45 10 10
45 11 10
45 12 15
45 13 6
45 14 2
45 15 16
45 16 19
45 17 1
45 18 4
45 19 10
45 20 19
45 21 7
45 22 17
45 23 13
45 24 13
45 25 16
45 26 1
45 27 9
45 28 11
45 29 7
45 30 16
45 31 16
45 32 5
45 33 9
45 34 14
45 35 13
45 36 8
45 37 10
45 38 16
45 39 4
45 40 16
45 41 16
45 42 11
45 43 13
45 44 4
46 0 2
46 1 16
46 2 5
46 3 5
46 4 20
46 5 5
46 6 16
46 7 14
46 8 2
46 9 16
46 10 3
46 11 8
46 12 17
46 13 15
46 14 20
46 15 5
46 16 13
46 17 10
46 18 4
46 19 15
46 20 8
46 21 1
46 22 1
46 23 2
46 24 16
46 25 18
46 26 8
46 27 9
46 28 5
46 29 7
46 30 11
46 31 8
46 32 4
46 33 15
46 34 9
46 35 20
46 36 10
46 37 8
46 38 20
46 39 12
46 40 19
46 41 19
46 42 14
46 43 12
46 44 16
46 45 17
47 0 15
47 1 10
47 2 9
47 3 18
47 4 9
47 5 12
47 6 1
47 7 14
47 8 17
47 9 18
47 10 10
47 11 12
47 12 6
47 13 19
47 14 2
47 15 3
47 16 19
47 17 6
47 18 5
47 19 13
47 20 19
47 21 16
47 22 17
47 23 3
47 24 5
47 25 3
47 26 10
47 27 9
47 28 20
47 29 17
47 30 19
47 31 15
47 32 20
47 33 16
47 34 12
47 35 15
47 36 19
47 37 1
47 38 12
47 39 17
47 40 14
47 41 14
47 42 6
47 43 12
47 44 16
47 45 19
47 46 10
48 0 15
48 1 8
48 2 11
48 3 11
48 4 1
48 5 3
48 6 12
48 7 12
48 8 8
48 9 9
48 10 3
48 11 10
48 12 8
48 13 3
48 14 13
48 15 18
48 16 17
48 17 6
48 18 6
48 19 15
48 20 19
48 21 7
48 22 13
48 23 9
48 24 6
48 25 18
48 26 16
48 27 1
48 28 4
48 29 17
48 30 16
48 31 1
48 32 11
48 33 6
48 34 2
48 35 2
48 36 1
48 37 8
48 38 11
48 39 18
48 40 3
48 41 2
48 42 18
48 43 6
48 44 17
48 45 8
48 46 8
48 47 17
49 0 13
49 1 18
49 2 6
49 3 11
49 4 14
49 5 3
49 6 5
49 7 20
49 8 11
49 9 16
49 10 17
49 11 10
49 12 20
49 13 1
49 14 15
49 15 5
49 16 3
49 17 13
49 18 5
49 19 6
49 20 9
49 21 14
49 22 3
49 23 14
49 24 13
49 25 7
49 26 20
49 27 19
49 28 15
49 29 5
49 30 19
49 31 2
49 32 5
49 33 5
49 34 12
49 35 4
49 36 3
49 37 20
49 38 18
49 39 12
49 40 13
49 41 6
49 42 18
49 43 8
49 44 18
49 45 3
49 46 8
49 47 16
49 48 10
50 0 3
50 1 12
50 2 6
50 3 12
50 4 14
50 5 17
50 6 11
50 7 20
50 8 12
50 9 3
50 10 19
50 11 15
50 12 17
50 13 16
50 14 10
50 15 11
50 16 6
50 17 20
50 18 17
50 19 9
50 20 3
50 21 11
50 22 7
50 23 2
50 24 2
50 25 20
50 26 20
50 27 19
50 28 4
50 29 3
50 30 4
50 31 15
50 32 18
50 33 16
50 34 6
50 35 5
50 36 11
50 37 5
50 38 14
50 39 5
50 40 17
50 41 7
50 42 10
50 43 2
50 44 13
50 45 2
50 46 14
50 47 4
50 48 20
50 49 12
51 0 18
51 1 14
51 2 17
51 3 4
51 4 5
51 5 15
51 6 6
51 7 6
51 8 11
51 9 9
51 10 6
51 11 13
51 12 20
51 13 1
51 14 11
51 15 14
51 16 1
51 17 8
51 18 2
51 19 14
51 20 11
51 21 6
51 22 2
51 23 10
51 24 19
51 25 12
51 26 10
51 27 2
51 28 15
51 29 4
51 30 11
51 31 6
51 32 10
51 33 12
51 34 16
51 35 15
51 36 17
51 37 14
51 38 14
51 39 1
51 40 10
51 41 11
51 42 11
51 43 20
51 44 5
51 45 14
51 46 16
51 47 18
51 48 5
51 49 7
51 50 3
52 0 11
52 1 3
52 2 14
52 3 15
52 4 10
52 5 2
52 6 12
52 7 8
52 8 13
52 9 7
52 10 3
52 11 2
52 12 20
52 13 20
52 14 14
52 15 10
52 16 16
52 17 7
52 18 6
52 19 3
52 20 5
52 21 4
52 22 7
52 23 20
52 24 11
52 25 18
52 26 15
52 27 18
52 28 1
52 29 17
52 30 10
52 31 4
52 32 15
52 33 12
52 34 15
52 35 20
52 36 20
52 37 15
52 38 16
52 39 12
52 40 10
52 41 6
52 42 19
52 43 16
52 44 10
52 45 3
52 46 1
52 47 12
52 48 15
52 49 5
52 50 17
52 51 1
53 0 15
53 1 1
53 2 16
53 3 11
53 4 14
53 5 5
53 6 2
53 7 17
53 8 9
53 9 13
53 10 7
53 11 10
53 12 18
53 13 9
53 14 3
53 15 6
53 16 11
53 17 20
53 18 1
53 19 2
53 20 16
53 21 19
53 22 14
53 23 9
53 24 4
53 25 16
53 26 5
53 27 10
53 28 7
53 29 13
53 30 15
53 31 16
53 32 2
53 33 19
53 34 12
53 35 13
53 36 20
53 37 6
53 38 8
53 39 2
53 40 3
53 41 11
53 42 6
53 43 17
53 44 4
53 45 18
53 46 2
53 47 15
53 48 3
53 49 16
53 50 9
53 51 3
53 52 10
54 0 11
54 1 15
54 2 17
54 3 3
54 4 2
54 5 6
54 6 11
54 7 3
54 8 13
54 9 5
54 10 1
54 11 9
54 12 17
54 13 19
54 14 14
54 15 19
54 16 3
54 17 18
54 18 12
54 19 14
54 20 1
54 21 13
54 22 11
54 23 4
54 24 10
54 25 3
54 26 10
54 27 11
54 28 4
54 29 6
54 30 11
54 31 11
54 32 15
54 33 10
54 34 2
54 35 19
54 36 17
54 37 9
54 38 10
54 39 16
54 40 16
54 41 8
54 42 3
54 43 9
54 44 20
54 45 14
54 46 6
54 47 18
54 48 10
54 49 6
54 50 11
54 51 5
54 52 10
54 53 8
55 0 5
55 1 18
55 2 11
55 3 2
55 4 1
55 5 17
55 6 14
55 7 13
55 8 3
55 9 15
55 10 17
55 11 7
55 12 4
55 13 13
55 14 4
55 15 5
55 16 2
55 17 10
55 18 11
55 19 20
55 20 15
55 21 4
55 22 8
55 23 4
55 24 16
55 25 1
55 26 20
55 27 17
55 28 11
55 29 4
55 30 14
55 31 5
55 32 20
55 33 9
55 34 2
55 35 17
55 36 18
55 37 11
55 38 18
55 39 14
55 40 3
55 41 12
55 42 6
55 43 9
55 44 6
55 45 13
55 46 14
55 47 6
55 48 4
55 49 10
55 50 10
55 51 6
55 52 19
55 53 1
55 54 7
56 0 19
56 1 13
56 2 5
56 3 11
56 4 2
56 5 2
56 6 8
56 7 5
56 8 11
56 9 17
56 10 6
56 11 20
56 12 9
56 13 12
56 14 8
56 15 16
56 16 5
56 17 11
56 18 4
56 19 5
56 20 19
56 21 3
56 22 13
56 23 19
56 24 5
56 25 7
56 26 4
56 27 20
56 28 6
56 29 16
56 30 14
56 31 11
56 32 17
56 33 15
56 34 18
56 35 17
56 36 17
56 37 3
56 38 16
56 39 18
56 40 19
56 41 5
56 42 16
56 43 13
56 44 18
56 45 11
56 46 9
56 47 1
56 48 17
56 49 12
56 50 7
56 51 12
56 52 11
56 53 11
56 54 7
56 55 20
57 0 14
57 1 4
57 2 2
57 3 7
57 4 5
57 5 15
57 6 18
57 7 16
57 8 20
57 9 1
57 10 18
57 11 17
57 12 18
57 13 3
57 14 10
57 15 18
57 16 14
57 17 8
57 18 9
57 19 17
57 20 20
57 21 3
57 22 13
57 23 13
57 24 17
57 25 2
57 26 2
57 27 14
57 28 11
57 29 13
57 30 13
57 31 12
57 32 3
57 33 17
57 34 10
57 35 8
57 36 15
57 37 20
57 38 8
57 39 6
57 40 8
57 41 13
57 42 14
57 43 18
57 44 8
57 45 17
57 46 13
57 47 13
57 48 4
57 49 12
57 50 11
57 51 2
57 52 8
57 53 6
57 54 2
57 55 1
57 56 16
58 0 20
58 1 20
58 2 15
58 3 17
58 4 11
58 5 9
58 6 14
58 7 13
58 8 6
58 9 13
58 10 17
58 11 15
58 12 19
58 13 1
58 14 18
58 15 4
58 16 10
58 17 16
58 18 10
58 19 3
58 20 9
58 21 5
58 22 17
58 23 3
58 24 17
58 25 2
58 26 19
58 27 9
58 28 14
58 29 14
58 30 15
58 31 20
58 32 12
58 33 17
58 34 19
58 35 15
58 36 9
58 37 8
58 38 17
58 39 3
58 40 15
58 41 11
58 42 13
58 43 4
58 44 11
58 45 7
58 46 17
58 47 6
58 48 14
58 49 4
58 50 7
58 51 2
58 52 2
58 53 3
58 54 20
58 55 4
58 56 2
58 57 19
59 0 7
59 1 2
59 2 8
59 3 5
59 4 14
59 5 16
59 6 20
59 7 11
59 8 6
59 9 15
59 10 6
59 11 1
59 12 14
59 13 20
59 14 5
59 15 14
59 16 9
59 17 5
59 18 16
59 19 15
59 20 18
59 21 10
59 22 15
59 23 16
59 24 2
59 25 14
59 26 6
59 27 1
59 28 18
59 29 4
59 30 12
59 31 10
59 32 5
59 33 14
59 34 3
59 35 4
59 36 12
59 37 1
59 38 12
59 39 2
59 40 12
59 41 15
59 42 20
59 43 11
59 44 3
59 45 2
59 46 15
59 47 6
59 48 1
59 49 16
59 50 1
59 51 6
59 52 17
59 53 4
59 54 5
59 55 14
59 56 11
59 57 7
59 58 5
